NAME = SAfile180,
TOURSIZE = 180,
LENGTH = 1950,
2,156,97,10,34,3,39,76,131,67,69,105,110,111,114,27,141,31,53,40,147,15,61,162,79,93,8,21,42,138,46,113,57,142,98,91,1,11,63,38,50,4,32,108,144,133,25,88,102,129,154,87,86,56,157,148,9,5,140,71,119,99,49,117,151,161,59,146,143,100,65,112,81,48,94,26,101,126,127,82,72,62,137,24,44,118,89,168,14,60,85,13,134,122,20,68,17,19,106,166,179,121,80,22,175,173,174,130,84,35,107,149,150,132,6,153,123,124,55,169,177,104,145,163,74,78,159,160,165,115,120,7,178,47,51,30,109,95,92,116,172,45,12,16,29,152,139,43,52,135,158,66,36,37,23,70,77,128,155,41,83,171,64,54,28,73,33,125,58,180,176,103,96,170,164,75,167,90,136,18